1649151000
1649169840
1649242800
1649252040
1649325600
1649344920
1649412000
1649430780
1649588040
1649595120
1649665620
1649684160
1649756340
1649776320
1649844000
1649863800
1649930340
1649948280
1650016860
1650320640
1650027600
1650326580
1650362340
1650384720
1650103260
1650448860
1650103260
1650464040
1650534900
1650553320
1650621480
1650637620
1650880800
1650902340
1650952320
1650956040
1650967140
1650980580
1651053600
1651068900
1651140000
1651158180
1651226400
1651241940
